ATOMIC_SPECIES
'H'  1.    'H.pbe-rrkjus_psl.1.0.0.UPF' 
'O'  16.   'O.pbe-n-kjpaw_psl.0.1.UPF' 
ATOMIC_POSITIONS angstrom 


K_POINTS gamma 

