&control
calculation='scf'
prefix='{calculation_id}'
outdir='./'
pseudodir='./'
tprnfor='./'
verbosity='high'
/
