&control
calculation='scf'
prefix='{calculation_id}'
outdir='./'
pseudo_dir='./'
tprnfor=.true.
verbosity='high'
/
